nbNodes = 12;
nbVehi = 5;
nbServi = 5;

e = 
 [|    0,  395,   37,  415,  421,  314,  408,  232,  192,  168,  461,    0,
 |    0,   53,  102,  170,  436,  318,  184,  289,   29,   65,  352,    0,
 |    0,  100,  107,  192,  389,  109,  396,  268,   65,  224,  185,    0,
 |    0,  306,  324,  140,  368,  339,  149,   53,  320,   90,  126,    0,
 |    0,  132,  377,   73,  387,  464,  389,  476,  434,  135,  371,    0,
 |];

l = 
 [| 480, 439,  68, 470, 467, 369, 461, 266, 242, 211, 503, 480,
 | 480,  96, 161, 211, 473, 372, 238, 332,  81, 109, 405, 480,
 | 480, 157, 148, 237, 427, 167, 441, 315,  99, 269, 243, 480,
 | 480, 337, 368, 186, 418, 380, 180, 109, 354, 128, 160, 480,
 | 480, 163, 420, 132, 429, 519, 438, 535, 472, 172, 408, 480,
 |];

a = 
 [|  1,  1,  0,  0,  1,
 |  1,  1,  0,  1,  0,
 |  1,  0,  1,  1,  1,
 |  1,  1,  1,  1,  1,
 |  0,  1,  1,  1,  1,
 |];

p = array3d(1..nbNodes,1..nbVehi,1..nbServi,
[  0,  0,  0,  0,  0,	  0,  0,  0,  0,  0,	  0,  0,  0,  0,  0,	  0,  0,  0,  0,  0,	  0,  0,  0,  0,  0,	
 19, 19, 24,  8,  5,	 25, 16, 29, 18, 10,	 27,  7, 28, 23, 11,	 24, 13, 13, 20, 15,	  9, 12, 20, 18, 19,	
 11, 12, 24,  9, 22,	 10, 26, 11,  6, 29,	 13, 28, 17, 12, 16,	 23, 12, 21, 23,  7,	 29, 19, 15, 15, 11,	
 28, 19, 18, 18, 10,	 10, 26, 19, 29,  7,	 11, 11,  5, 19, 15,	 29, 27, 13, 19, 12,	 27, 14, 19, 20,  7,	
 21, 19, 24,  6, 29,	  5,  6, 21, 19, 21,	 26, 24, 17, 15, 25,	 22, 23,  8, 22, 12,	 20, 24,  9, 29, 13,	
 16, 28, 22,  5, 18,	 26, 23,  7, 20, 27,	  7, 21, 28, 25, 12,	 20, 21,  8,  9,  8,	  5, 26, 26, 10, 19,	
  8, 26, 13, 14, 27,	 21, 26, 25, 15, 28,	 15, 13, 24, 19, 29,	 21, 23, 22, 21, 18,	 29, 11,  9,  9, 16,	
 12,  9, 14, 10, 14,	 28, 13, 12, 11, 25,	  9, 29, 21,  6, 16,	 21, 16, 25, 17,  6,	 26,  8, 24, 18, 25,	
 15, 19,  8, 19, 23,	 21, 29, 29,  6,  9,	 13,  6, 20, 21, 15,	 15, 27, 14,  8, 29,	 28, 26, 17, 23, 14,	
 20, 19, 19, 17,  9,	 14, 27, 23, 18, 18,	 18,  9, 17, 17, 12,	 24, 27, 14, 16, 18,	 24, 26, 16, 10,  6,	
 17,  8, 29, 29, 28,	 13, 22, 19, 28,  9,	 23, 14,  6, 18, 29,	 19,  6, 11,  9, 20,	 18, 28, 18, 29, 14,	
  0,  0,  0,  0,  0,	  0,  0,  0,  0,  0,	  0,  0,  0,  0,  0,	  0,  0,  0,  0,  0,	  0,  0,  0,  0,  0,	
]);

rs = 
[|true,true,true,true,true,
 |false,false,false,true,false,
 |false,false,true,false,false,
 |false,true,false,false,false,
 |false,true,false,false,false,
 |true,false,false,false,false,
 |false,false,false,true,false,
 |false,false,false,false,true,
 |false,false,false,false,true,
 |true,false,false,false,false,
 |false,false,false,true,false,
 |true,true,true,true,true,
 |];

d=[|0, 25, 12, 17, 17, 15, 11, 12, 21, 21, 6, 0, 
|25, 0, 21, 24, 23, 27, 35, 25, 38, 9, 24, 25, 
|12, 21, 0, 5, 5, 26, 17, 23, 16, 14, 17, 12, 
|17, 24, 5, 0, 2, 31, 19, 28, 14, 16, 22, 17, 
|17, 23, 5, 2, 0, 31, 21, 28, 16, 14, 23, 17, 
|15, 27, 26, 31, 31, 0, 23, 3, 36, 29, 9, 15, 
|11, 35, 17, 19, 21, 23, 0, 20, 15, 30, 15, 11, 
|12, 25, 23, 28, 28, 3, 20, 0, 33, 26, 6, 12, 
|21, 38, 16, 14, 16, 36, 15, 33, 0, 30, 27, 21, 
|21, 9, 14, 16, 14, 29, 30, 26, 30, 0, 23, 21, 
|6, 24, 17, 22, 23, 9, 15, 6, 27, 23, 0, 6, 
|0, 25, 12, 17, 17, 15, 11, 12, 21, 21, 6, 0, 
|];

%coord=[ (0,0), (-25,0), (-6,-11), (-6,-16), (-8,-16), (-2,15), (10,-5), (-2,12), (8,-20), (-20,-8), (-1,6), (0,0), ];

